<number of tasks>
250

<cycle time>
1000

<order strength>
0.595


<task times>
1 161
2 150
3 74
4 236
5 123
6 84
7 104
8 390
9 353
10 76
11 40
12 50
13 41
14 109
15 40
16 172
17 119
18 67
19 107
20 93
21 35
22 162
23 138
24 134
25 110
26 119
27 323
28 183
29 146
30 141
31 108
32 99
33 189
34 98
35 64
36 256
37 110
38 325
39 62
40 27
41 141
42 369
43 161
44 39
45 183
46 120
47 33
48 74
49 95
50 100
51 20
52 55
53 44
54 64
55 100
56 132
57 195
58 77
59 124
60 178
61 175
62 135
63 186
64 64
65 176
66 189
67 197
68 83
69 67
70 267
71 192
72 88
73 23
74 123
75 265
76 70
77 198
78 36
79 66
80 27
81 23
82 66
83 35
84 79
85 120
86 317
87 181
88 176
89 105
90 76
91 28
92 147
93 115
94 75
95 79
96 78
97 192
98 84
99 49
100 32
101 51
102 60
103 97
104 142
105 38
106 23
107 126
108 71
109 151
110 188
111 155
112 32
113 133
114 114
115 84
116 157
117 126
118 112
119 21
120 51
121 60
122 77
123 174
124 218
125 72
126 109
127 105
128 73
129 222
130 189
131 59
132 69
133 94
134 62
135 34
136 156
137 107
138 164
139 133
140 118
141 143
142 66
143 120
144 99
145 133
146 100
147 228
148 205
149 258
150 132
151 125
152 108
153 73
154 299
155 277
156 242
157 74
158 234
159 191
160 42
161 98
162 70
163 83
164 193
165 102
166 251
167 37
168 263
169 132
170 145
171 66
172 146
173 117
174 216
175 169
176 85
177 74
178 202
179 195
180 69
181 171
182 80
183 343
184 267
185 28
186 101
187 223
188 194
189 39
190 269
191 150
192 26
193 257
194 52
195 97
196 65
197 90
198 198
199 238
200 59
201 173
202 81
203 227
204 75
205 70
206 262
207 71
208 115
209 59
210 174
211 162
212 113
213 116
214 149
215 43
216 64
217 234
218 230
219 124
220 175
221 30
222 145
223 81
224 225
225 20
226 105
227 82
228 138
229 157
230 41
231 118
232 36
233 189
234 361
235 77
236 132
237 51
238 228
239 88
240 268
241 99
242 208
243 125
244 179
245 199
246 148
247 74
248 170
249 77
250 35

<precedence relations>
1,33
2,33
3,58
4,58
5,110
6,20
6,21
7,13
7,15
8,11
8,16
8,17
8,25
9,10
9,12
9,14
9,18
9,19
10,33
11,33
12,33
13,33
14,33
15,58
16,58
17,58
18,180
19,84
20,159
21,22
21,23
21,24
21,25
21,26
21,27
21,28
21,29
21,30
21,31
21,32
22,33
23,33
24,33
25,33
26,33
27,58
28,84
29,84
30,159
31,34
31,37
31,40
31,42
31,45
31,47
31,60
32,35
32,36
32,38
32,39
32,41
32,43
32,44
32,46
33,48
33,49
33,50
33,51
33,52
33,53
33,54
34,58
35,58
36,58
37,58
38,58
39,58
40,180
41,180
42,141
43,84
44,84
45,84
46,110
47,55
47,56
47,57
48,62
48,66
48,76
48,89
49,60
49,62
49,86
49,92
49,99
49,100
50,58
50,63
50,68
51,64
51,65
51,112
52,65
52,202
53,61
53,67
53,76
54,58
55,58
56,110
57,59
57,61
57,73
57,100
58,69
58,70
58,71
58,72
58,73
58,74
59,180
60,180
61,180
62,84
63,123
64,211
65,224
66,124
66,126
67,122
68,120
68,143
69,141
70,84
71,84
72,110
73,75
73,76
73,77
73,78
73,80
73,81
73,92
74,78
74,79
74,82
75,180
76,141
77,84
78,123
79,228
80,110
81,110
82,83
82,85
82,86
82,87
82,88
82,89
82,90
82,107
83,141
84,91
84,93
84,94
84,95
84,96
84,97
84,98
85,178
86,228
87,110
89,92
89,99
89,100
89,104
89,106
89,123
90,91
90,99
90,144
90,145
91,141
92,141
93,211
94,103
94,104
94,107
95,101
95,105
95,106
96,101
96,102
96,107
97,192
98,102
98,133
99,110
100,101
100,120
100,157
100,168
101,236
102,123
103,159
104,224
105,110
106,110
107,108
107,109
107,111
107,112
108,141
109,178
110,115
110,116
110,117
110,118
110,119
111,120
111,142
111,172
112,113
112,114
113,180
114,123
115,124
115,125
116,126
116,142
117,133
118,122
119,121
119,174
120,121
121,180
122,141
123,127
123,128
123,129
123,130
123,131
123,132
124,133
124,136
125,176
125,209
126,175
127,144
127,174
128,204
129,161
129,226
131,234
132,134
132,135
133,146
133,162
134,138
134,140
134,206
135,136
135,137
135,139
136,141
137,211
138,211
139,142
139,143
139,145
139,146
140,144
141,148
141,149
141,150
141,151
141,152
141,153
141,154
141,155
141,157
141,158
142,236
143,178
144,228
145,224
146,147
146,156
146,157
147,180
148,162
151,168
151,172
151,225
153,201
153,250
154,160
154,178
156,211
157,159
158,159
158,161
159,163
159,164
159,165
159,166
159,167
160,169
161,168
161,169
161,170
162,171
162,173
163,176
164,207
165,175
165,213
165,215
167,173
168,201
169,227
170,172
170,174
170,192
170,213
171,172
171,225
172,236
173,178
174,224
175,179
175,201
176,177
177,180
178,181
178,182
178,183
178,184
178,185
178,186
178,187
178,188
178,189
178,190
178,191
178,192
178,193
179,205
180,194
180,195
180,196
180,197
180,198
180,199
180,200
182,211
183,201
183,211
183,213
184,214
186,236
187,250
188,201
188,223
189,203
189,242
191,202
191,203
191,207
193,226
194,224
195,204
197,203
197,210
197,226
197,234
198,236
200,205
200,208
201,207
201,209
201,210
202,206
203,236
204,236
205,211
206,228
207,228
208,213
208,214
208,215
209,212
210,216
211,217
211,218
211,219
211,220
211,221
211,222
211,223
211,225
211,226
212,228
213,224
214,224
218,227
220,227
220,234
223,228
224,229
224,230
224,231
224,232
224,233
225,235
227,236
228,237
228,238
228,239
228,240
228,241
228,242
236,243
236,244
236,245
236,246
236,247
236,248
236,249
248,250

<end>
